clingo version 5.5.2
Reading from stdin
Solving...
UNSATISFIABLE

Models       : 0
Calls        : 1
Time         : 45.106s (Solving: 0.41s 1st Model: 0.00s Unsat: 0.41s)
CPU Time     : 44.141s

Choices      : 1       
Conflicts    : 2        (Analyzed: 1)
Restarts     : 0       
Stab. Tests  : 1        (Full: 0 Partial: 1)
Problems     : 1        (Average Length: 0.00 Splits: 0)
Lemmas       : 1        (Deleted: 0)
  Binary     : 0        (Ratio:   0.00%)
  Ternary    : 0        (Ratio:   0.00%)
  Conflict   : 1        (Average Length:    1.0 Ratio: 100.00%) 
  Loop       : 0        (Average Length:    0.0 Ratio:   0.00%) 
  Other      : 0        (Average Length:    0.0 Ratio:   0.00%) 
Backjumps    : 1        (Average:  1.00 Max:   1 Sum:      1)
  Executed   : 1        (Average:  1.00 Max:   1 Sum:      1 Ratio: 100.00%)
  Bounded    : 0        (Average:  0.00 Max:   0 Sum:      0 Ratio:   0.00%)

Rules        : 10070951
Atoms        : 12881   
Disjunctions : 3        (Original: 3)
Bodies       : 10063934
Equivalences : 2969     (Atom=Atom: 72 Body=Body: 271 Other: 2626)
Tight        : No       (SCCs: 2 Non-Hcfs: 1 Nodes: 9962653 Gammas: 0)
Variables    : 10060046 (Eliminated:    0 Frozen: 9963146)
Constraints  : 50158626 (Binary:  80.0% Ternary:   0.0% Other:  20.0%)

